NAME : kroE100.36947.tour
COMMENT : Cost = 7488_36947
COMMENT : Found by LKH [Keld Helsgaun] Thu Nov 16 17:27:04 2017
TYPE : TOUR
DIMENSION : 104
TOUR_SECTION
1
65
66
70
85
96
11
2
4
13
31
25
40
104
48
90
91
55
34
53
78
77
37
6
93
30
42
5
8
103
68
38
33
22
86
19
94
18
24
29
100
43
39
101
7
63
62
49
50
60
87
41
27
67
82
92
75
9
57
80
10
97
54
45
99
17
84
35
88
102
83
73
16
71
61
14
52
44
72
89
81
79
26
46
3
47
69
51
98
59
95
36
28
23
15
20
56
64
58
32
12
76
21
74
-1
EOF
